c Standarized MaxSat Instance
c{
c "sha1sum": "fd131772933ea24ec61fe7390ab4c5d6fb2f8891",
c "nvars": 410,
c "ncls": 2800,
c "total_lits": 6800,
c "nhards": 2440,
c "nhard_nlits": 6440,
c "nhard_len_stats":
c    { "min": 1,
c      "max": 6,
c      "ave": 2.6393,
c      "stddev": 1.4935 },
c "nsofts": 360,
c "nsoft_nlits": 360,
c "nsoft_len_stats":
c    { "min": 1,
c      "max": 1,
c      "ave": 1.0000,
c      "stddev": 0.0000 },
c "nsoft_wts": 1,
c "soft_wt_stats":
c    { "min": 1,
c      "max": 1,
c      "ave": 1.0000,
c      "stddev": 0.0000 }
c}
c------------------------------------------------------------
h -1 11 0
h -1 12 0
h -1 14 0
h -1 16 0
h -1 17 0
h -1 18 0
h -1 19 0
h -1 21 0
h -1 25 0
h -1 31 0
h -1 32 0
h -1 34 0
h -1 35 0
h -1 36 0
h -1 38 0
h -1 39 0
h -1 45 0
h -1 47 0
h -1 48 0
h -1 49 0
h -1 50 0
h -1 51 0
h -1 52 0
h -1 53 0
h -1 54 0
h -1 58 0
h -1 59 0
h -1 60 0
h -1 62 0
h -1 65 0
h -1 66 0
h -1 68 0
h -1 71 0
h -1 74 0
h -1 75 0
h -1 76 0
h -1 79 0
h -1 80 0
h -1 81 0
h -1 82 0
h -1 84 0
h -1 85 0
h -1 87 0
h -1 88 0
h -1 89 0
h -1 90 0
h -1 93 0
h -1 95 0
h -1 96 0
h -1 98 0
h -1 101 0
h -1 105 0
h -1 109 0
h -1 110 0
h -1 111 0
h -1 112 0
h -1 113 0
h -1 114 0
h -1 115 0
h -1 117 0
h -1 123 0
h -1 124 0
h -1 127 0
h -1 128 0
h -1 129 0
h -1 130 0
h -1 135 0
h -1 136 0
h -1 137 0
h -1 138 0
h -1 141 0
h -1 142 0
h -1 143 0
h -1 144 0
h -1 145 0
h -1 148 0
h -1 149 0
h -1 150 0
h -1 151 0
h -1 154 0
h -1 156 0
h -1 157 0
h -1 159 0
h -1 160 0
h -1 161 0
h -1 164 0
h -1 167 0
h -1 170 0
h -1 171 0
h -1 173 0
h -1 175 0
h -1 176 0
h -1 177 0
h -1 180 0
h -1 184 0
h -1 186 0
h -1 187 0
h -1 192 0
h -1 193 0
h -1 197 0
h -1 201 0
h -1 203 0
h -1 204 0
h -1 205 0
h -1 206 0
h -1 207 0
h -1 208 0
h -1 212 0
h -1 213 0
h -1 216 0
h -1 217 0
h -1 218 0
h -1 220 0
h -1 221 0
h -1 222 0
h -1 224 0
h -1 226 0
h -1 229 0
h -1 232 0
h -1 233 0
h -1 234 0
h -1 236 0
h -1 239 0
h -1 240 0
h -1 241 0
h -1 246 0
h -1 250 0
h -1 254 0
h -1 258 0
h -1 259 0
h -1 262 0
h -1 265 0
h -1 267 0
h -1 269 0
h -1 270 0
h -1 271 0
h -1 272 0
h -1 273 0
h -1 274 0
h -1 276 0
h -1 278 0
h -1 285 0
h -1 286 0
h -1 287 0
h -1 289 0
h -1 294 0
h -1 299 0
h -1 300 0
h -1 302 0
h -1 304 0
h -1 305 0
h -1 306 0
h -1 308 0
h -1 309 0
h -1 311 0
h -1 312 0
h -1 313 0
h -1 314 0
h -1 315 0
h -1 317 0
h -1 318 0
h -1 320 0
h -1 322 0
h -1 325 0
h -1 326 0
h -1 337 0
h -1 338 0
h -1 344 0
h -1 347 0
h -1 348 0
h -1 349 0
h -1 351 0
h -1 353 0
h -1 354 0
h -1 356 0
h -1 357 0
h -1 359 0
h -1 361 0
h -1 363 0
h -1 366 0
h -1 367 0
h -1 368 0
h -1 369 0
h -1 372 0
h -1 373 0
h -1 374 0
h -1 377 0
h -1 378 0
h -1 379 0
h -1 382 0
h -1 383 0
h -1 386 0
h -1 392 0
h -1 395 0
h -1 397 0
h -1 398 0
h -1 399 0
h -1 400 0
h -1 401 0
h -1 402 0
h -1 403 0
h -1 404 0
h -1 406 0
h -1 408 0
h -1 410 0
h -2 12 0
h -2 14 0
h -2 15 0
h -2 16 0
h -2 20 0
h -2 21 0
h -2 26 0
h -2 27 0
h -2 29 0
h -2 33 0
h -2 34 0
h -2 36 0
h -2 37 0
h -2 38 0
h -2 39 0
h -2 40 0
h -2 41 0
h -2 44 0
h -2 46 0
h -2 47 0
h -2 52 0
h -2 54 0
h -2 57 0
h -2 66 0
h -2 70 0
h -2 72 0
h -2 73 0
h -2 75 0
h -2 77 0
h -2 78 0
h -2 79 0
h -2 82 0
h -2 85 0
h -2 87 0
h -2 90 0
h -2 93 0
h -2 94 0
h -2 95 0
h -2 96 0
h -2 97 0
h -2 98 0
h -2 99 0
h -2 100 0
h -2 101 0
h -2 102 0
h -2 107 0
h -2 108 0
h -2 109 0
h -2 110 0
h -2 111 0
h -2 112 0
h -2 113 0
h -2 114 0
h -2 117 0
h -2 118 0
h -2 119 0
h -2 122 0
h -2 125 0
h -2 127 0
h -2 130 0
h -2 133 0
h -2 138 0
h -2 139 0
h -2 141 0
h -2 144 0
h -2 145 0
h -2 147 0
h -2 149 0
h -2 150 0
h -2 152 0
h -2 153 0
h -2 154 0
h -2 155 0
h -2 156 0
h -2 161 0
h -2 163 0
h -2 165 0
h -2 166 0
h -2 167 0
h -2 168 0
h -2 169 0
h -2 170 0
h -2 172 0
h -2 173 0
h -2 174 0
h -2 176 0
h -2 177 0
h -2 178 0
h -2 180 0
h -2 181 0
h -2 183 0
h -2 186 0
h -2 187 0
h -2 189 0
h -2 191 0
h -2 194 0
h -2 195 0
h -2 196 0
h -2 197 0
h -2 198 0
h -2 204 0
h -2 206 0
h -2 207 0
h -2 208 0
h -2 212 0
h -2 216 0
h -2 217 0
h -2 218 0
h -2 221 0
h -2 222 0
h -2 223 0
h -2 226 0
h -2 227 0
h -2 229 0
h -2 231 0
h -2 233 0
h -2 234 0
h -2 237 0
h -2 239 0
h -2 240 0
h -2 241 0
h -2 242 0
h -2 244 0
h -2 247 0
h -2 248 0
h -2 251 0
h -2 254 0
h -2 255 0
h -2 256 0
h -2 257 0
h -2 260 0
h -2 264 0
h -2 266 0
h -2 268 0
h -2 274 0
h -2 275 0
h -2 277 0
h -2 279 0
h -2 280 0
h -2 282 0
h -2 283 0
h -2 284 0
h -2 285 0
h -2 286 0
h -2 288 0
h -2 289 0
h -2 290 0
h -2 295 0
h -2 298 0
h -2 300 0
h -2 301 0
h -2 303 0
h -2 311 0
h -2 312 0
h -2 314 0
h -2 315 0
h -2 316 0
h -2 322 0
h -2 323 0
h -2 324 0
h -2 325 0
h -2 327 0
h -2 328 0
h -2 329 0
h -2 330 0
h -2 334 0
h -2 336 0
h -2 338 0
h -2 339 0
h -2 340 0
h -2 341 0
h -2 343 0
h -2 347 0
h -2 348 0
h -2 351 0
h -2 352 0
h -2 358 0
h -2 359 0
h -2 361 0
h -2 362 0
h -2 364 0
h -2 365 0
h -2 367 0
h -2 368 0
h -2 369 0
h -2 371 0
h -2 372 0
h -2 373 0
h -2 374 0
h -2 375 0
h -2 378 0
h -2 380 0
h -2 382 0
h -2 383 0
h -2 384 0
h -2 385 0
h -2 390 0
h -2 391 0
h -2 393 0
h -2 394 0
h -2 398 0
h -2 399 0
h -2 400 0
h -2 401 0
h -2 404 0
h -2 405 0
h -2 408 0
h -3 12 0
h -3 14 0
h -3 15 0
h -3 16 0
h -3 19 0
h -3 23 0
h -3 26 0
h -3 30 0
h -3 33 0
h -3 37 0
h -3 41 0
h -3 43 0
h -3 44 0
h -3 46 0
h -3 48 0
h -3 49 0
h -3 51 0
h -3 56 0
h -3 58 0
h -3 59 0
h -3 60 0
h -3 63 0
h -3 64 0
h -3 65 0
h -3 66 0
h -3 67 0
h -3 68 0
h -3 70 0
h -3 72 0
h -3 74 0
h -3 75 0
h -3 76 0
h -3 77 0
h -3 79 0
h -3 80 0
h -3 83 0
h -3 84 0
h -3 87 0
h -3 89 0
h -3 91 0
h -3 92 0
h -3 93 0
h -3 94 0
h -3 95 0
h -3 96 0
h -3 103 0
h -3 104 0
h -3 106 0
h -3 107 0
h -3 108 0
h -3 110 0
h -3 112 0
h -3 113 0
h -3 114 0
h -3 116 0
h -3 118 0
h -3 119 0
h -3 121 0
h -3 126 0
h -3 129 0
h -3 132 0
h -3 133 0
h -3 134 0
h -3 136 0
h -3 139 0
h -3 143 0
h -3 145 0
h -3 149 0
h -3 150 0
h -3 151 0
h -3 154 0
h -3 155 0
h -3 156 0
h -3 157 0
h -3 158 0
h -3 165 0
h -3 168 0
h -3 171 0
h -3 172 0
h -3 173 0
h -3 174 0
h -3 175 0
h -3 177 0
h -3 178 0
h -3 179 0
h -3 180 0
h -3 181 0
h -3 182 0
h -3 183 0
h -3 185 0
h -3 186 0
h -3 187 0
h -3 188 0
h -3 189 0
h -3 190 0
h -3 196 0
h -3 197 0
h -3 198 0
h -3 199 0
h -3 200 0
h -3 201 0
h -3 205 0
h -3 207 0
h -3 210 0
h -3 211 0
h -3 212 0
h -3 213 0
h -3 215 0
h -3 216 0
h -3 218 0
h -3 219 0
h -3 221 0
h -3 225 0
h -3 227 0
h -3 228 0
h -3 229 0
h -3 233 0
h -3 237 0
h -3 239 0
h -3 241 0
h -3 244 0
h -3 247 0
h -3 249 0
h -3 252 0
h -3 253 0
h -3 255 0
h -3 256 0
h -3 258 0
h -3 259 0
h -3 260 0
h -3 262 0
h -3 263 0
h -3 266 0
h -3 267 0
h -3 269 0
h -3 271 0
h -3 272 0
h -3 273 0
h -3 274 0
h -3 275 0
h -3 278 0
h -3 279 0
h -3 281 0
h -3 282 0
h -3 283 0
h -3 284 0
h -3 286 0
h -3 289 0
h -3 291 0
h -3 293 0
h -3 295 0
h -3 296 0
h -3 297 0
h -3 300 0
h -3 302 0
h -3 303 0
h -3 304 0
h -3 307 0
h -3 309 0
h -3 311 0
h -3 314 0
h -3 315 0
h -3 317 0
h -3 321 0
h -3 323 0
h -3 324 0
h -3 325 0
h -3 326 0
h -3 327 0
h -3 330 0
h -3 331 0
h -3 333 0
h -3 335 0
h -3 337 0
h -3 338 0
h -3 339 0
h -3 341 0
h -3 345 0
h -3 346 0
h -3 353 0
h -3 356 0
h -3 357 0
h -3 359 0
h -3 360 0
h -3 363 0
h -3 364 0
h -3 367 0
h -3 371 0
h -3 378 0
h -3 379 0
h -3 381 0
h -3 382 0
h -3 386 0
h -3 387 0
h -3 388 0
h -3 389 0
h -3 390 0
h -3 391 0
h -3 392 0
h -3 393 0
h -3 394 0
h -3 395 0
h -3 396 0
h -3 397 0
h -3 398 0
h -3 400 0
h -3 401 0
h -3 402 0
h -3 403 0
h -3 406 0
h -3 407 0
h -3 408 0
h -4 13 0
h -4 14 0
h -4 15 0
h -4 17 0
h -4 19 0
h -4 22 0
h -4 23 0
h -4 24 0
h -4 26 0
h -4 27 0
h -4 30 0
h -4 32 0
h -4 34 0
h -4 35 0
h -4 40 0
h -4 41 0
h -4 42 0
h -4 43 0
h -4 47 0
h -4 48 0
h -4 50 0
h -4 51 0
h -4 52 0
h -4 53 0
h -4 54 0
h -4 55 0
h -4 59 0
h -4 61 0
h -4 62 0
h -4 63 0
h -4 64 0
h -4 71 0
h -4 72 0
h -4 73 0
h -4 74 0
h -4 76 0
h -4 77 0
h -4 79 0
h -4 80 0
h -4 81 0
h -4 85 0
h -4 89 0
h -4 91 0
h -4 92 0
h -4 94 0
h -4 97 0
h -4 99 0
h -4 100 0
h -4 101 0
h -4 104 0
h -4 110 0
h -4 111 0
h -4 116 0
h -4 120 0
h -4 121 0
h -4 124 0
h -4 127 0
h -4 130 0
h -4 132 0
h -4 134 0
h -4 135 0
h -4 137 0
h -4 138 0
h -4 141 0
h -4 143 0
h -4 148 0
h -4 149 0
h -4 151 0
h -4 152 0
h -4 153 0
h -4 155 0
h -4 157 0
h -4 158 0
h -4 159 0
h -4 160 0
h -4 162 0
h -4 164 0
h -4 165 0
h -4 166 0
h -4 169 0
h -4 170 0
h -4 174 0
h -4 175 0
h -4 176 0
h -4 177 0
h -4 178 0
h -4 184 0
h -4 185 0
h -4 189 0
h -4 190 0
h -4 195 0
h -4 198 0
h -4 200 0
h -4 203 0
h -4 206 0
h -4 207 0
h -4 209 0
h -4 210 0
h -4 211 0
h -4 214 0
h -4 215 0
h -4 220 0
h -4 228 0
h -4 231 0
h -4 235 0
h -4 236 0
h -4 237 0
h -4 244 0
h -4 248 0
h -4 249 0
h -4 250 0
h -4 251 0
h -4 259 0
h -4 263 0
h -4 265 0
h -4 266 0
h -4 270 0
h -4 271 0
h -4 273 0
h -4 274 0
h -4 276 0
h -4 277 0
h -4 280 0
h -4 282 0
h -4 284 0
h -4 287 0
h -4 288 0
h -4 289 0
h -4 290 0
h -4 291 0
h -4 292 0
h -4 293 0
h -4 294 0
h -4 297 0
h -4 298 0
h -4 301 0
h -4 302 0
h -4 305 0
h -4 308 0
h -4 309 0
h -4 310 0
h -4 314 0
h -4 316 0
h -4 318 0
h -4 319 0
h -4 324 0
h -4 328 0
h -4 331 0
h -4 332 0
h -4 334 0
h -4 335 0
h -4 336 0
h -4 340 0
h -4 341 0
h -4 342 0
h -4 345 0
h -4 346 0
h -4 348 0
h -4 349 0
h -4 350 0
h -4 352 0
h -4 353 0
h -4 355 0
h -4 356 0
h -4 358 0
h -4 360 0
h -4 363 0
h -4 365 0
h -4 367 0
h -4 368 0
h -4 370 0
h -4 371 0
h -4 374 0
h -4 377 0
h -4 379 0
h -4 380 0
h -4 386 0
h -4 387 0
h -4 393 0
h -4 394 0
h -4 396 0
h -4 399 0
h -4 402 0
h -4 404 0
h -4 405 0
h -4 407 0
h -5 11 0
h -5 13 0
h -5 14 0
h -5 17 0
h -5 19 0
h -5 20 0
h -5 22 0
h -5 23 0
h -5 28 0
h -5 29 0
h -5 30 0
h -5 32 0
h -5 36 0
h -5 37 0
h -5 40 0
h -5 42 0
h -5 45 0
h -5 52 0
h -5 57 0
h -5 58 0
h -5 61 0
h -5 62 0
h -5 65 0
h -5 66 0
h -5 67 0
h -5 68 0
h -5 71 0
h -5 72 0
h -5 75 0
h -5 77 0
h -5 78 0
h -5 80 0
h -5 82 0
h -5 83 0
h -5 84 0
h -5 85 0
h -5 86 0
h -5 89 0
h -5 92 0
h -5 94 0
h -5 96 0
h -5 97 0
h -5 99 0
h -5 102 0
h -5 103 0
h -5 107 0
h -5 109 0
h -5 113 0
h -5 114 0
h -5 118 0
h -5 119 0
h -5 120 0
h -5 122 0
h -5 123 0
h -5 125 0
h -5 128 0
h -5 131 0
h -5 132 0
h -5 136 0
h -5 137 0
h -5 140 0
h -5 143 0
h -5 146 0
h -5 147 0
h -5 153 0
h -5 157 0
h -5 159 0
h -5 160 0
h -5 162 0
h -5 163 0
h -5 164 0
h -5 165 0
h -5 166 0
h -5 169 0
h -5 178 0
h -5 179 0
h -5 180 0
h -5 181 0
h -5 183 0
h -5 184 0
h -5 187 0
h -5 188 0
h -5 190 0
h -5 192 0
h -5 194 0
h -5 195 0
h -5 196 0
h -5 198 0
h -5 201 0
h -5 202 0
h -5 205 0
h -5 208 0
h -5 209 0
h -5 211 0
h -5 214 0
h -5 216 0
h -5 218 0
h -5 219 0
h -5 222 0
h -5 223 0
h -5 225 0
h -5 226 0
h -5 230 0
h -5 231 0
h -5 232 0
h -5 233 0
h -5 235 0
h -5 236 0
h -5 238 0
h -5 240 0
h -5 242 0
h -5 243 0
h -5 245 0
h -5 246 0
h -5 248 0
h -5 249 0
h -5 251 0
h -5 252 0
h -5 253 0
h -5 256 0
h -5 257 0
h -5 260 0
h -5 261 0
h -5 262 0
h -5 263 0
h -5 266 0
h -5 267 0
h -5 271 0
h -5 272 0
h -5 273 0
h -5 275 0
h -5 276 0
h -5 279 0
h -5 281 0
h -5 282 0
h -5 283 0
h -5 286 0
h -5 287 0
h -5 290 0
h -5 291 0
h -5 293 0
h -5 295 0
h -5 298 0
h -5 299 0
h -5 300 0
h -5 304 0
h -5 306 0
h -5 307 0
h -5 308 0
h -5 309 0
h -5 311 0
h -5 312 0
h -5 319 0
h -5 321 0
h -5 324 0
h -5 326 0
h -5 327 0
h -5 328 0
h -5 329 0
h -5 331 0
h -5 332 0
h -5 333 0
h -5 334 0
h -5 335 0
h -5 336 0
h -5 337 0
h -5 338 0
h -5 339 0
h -5 340 0
h -5 344 0
h -5 345 0
h -5 348 0
h -5 349 0
h -5 352 0
h -5 353 0
h -5 354 0
h -5 355 0
h -5 357 0
h -5 358 0
h -5 359 0
h -5 360 0
h -5 361 0
h -5 365 0
h -5 366 0
h -5 368 0
h -5 369 0
h -5 370 0
h -5 372 0
h -5 373 0
h -5 377 0
h -5 381 0
h -5 382 0
h -5 383 0
h -5 384 0
h -5 385 0
h -5 387 0
h -5 388 0
h -5 389 0
h -5 390 0
h -5 391 0
h -5 392 0
h -5 394 0
h -5 395 0
h -5 397 0
h -5 398 0
h -5 402 0
h -5 405 0
h -5 406 0
h -5 407 0
h -5 409 0
h -5 410 0
h -6 13 0
h -6 16 0
h -6 18 0
h -6 21 0
h -6 24 0
h -6 25 0
h -6 28 0
h -6 29 0
h -6 30 0
h -6 31 0
h -6 32 0
h -6 33 0
h -6 35 0
h -6 36 0
h -6 39 0
h -6 40 0
h -6 41 0
h -6 42 0
h -6 44 0
h -6 45 0
h -6 46 0
h -6 49 0
h -6 50 0
h -6 55 0
h -6 56 0
h -6 60 0
h -6 64 0
h -6 65 0
h -6 68 0
h -6 69 0
h -6 70 0
h -6 73 0
h -6 74 0
h -6 78 0
h -6 82 0
h -6 83 0
h -6 84 0
h -6 86 0
h -6 87 0
h -6 88 0
h -6 90 0
h -6 91 0
h -6 95 0
h -6 97 0
h -6 99 0
h -6 100 0
h -6 101 0
h -6 103 0
h -6 105 0
h -6 106 0
h -6 112 0
h -6 115 0
h -6 117 0
h -6 120 0
h -6 121 0
h -6 122 0
h -6 124 0
h -6 125 0
h -6 126 0
h -6 129 0
h -6 130 0
h -6 134 0
h -6 136 0
h -6 137 0
h -6 139 0
h -6 140 0
h -6 141 0
h -6 142 0
h -6 144 0
h -6 145 0
h -6 146 0
h -6 148 0
h -6 153 0
h -6 157 0
h -6 158 0
h -6 159 0
h -6 164 0
h -6 166 0
h -6 167 0
h -6 168 0
h -6 170 0
h -6 171 0
h -6 172 0
h -6 174 0
h -6 175 0
h -6 177 0
h -6 181 0
h -6 188 0
h -6 189 0
h -6 191 0
h -6 192 0
h -6 193 0
h -6 195 0
h -6 196 0
h -6 199 0
h -6 201 0
h -6 204 0
h -6 207 0
h -6 209 0
h -6 210 0
h -6 213 0
h -6 214 0
h -6 217 0
h -6 220 0
h -6 223 0
h -6 224 0
h -6 226 0
h -6 228 0
h -6 232 0
h -6 238 0
h -6 242 0
h -6 243 0
h -6 244 0
h -6 245 0
h -6 247 0
h -6 248 0
h -6 249 0
h -6 250 0
h -6 253 0
h -6 254 0
h -6 255 0
h -6 258 0
h -6 264 0
h -6 268 0
h -6 272 0
h -6 273 0
h -6 274 0
h -6 275 0
h -6 277 0
h -6 278 0
h -6 283 0
h -6 288 0
h -6 289 0
h -6 290 0
h -6 292 0
h -6 293 0
h -6 294 0
h -6 295 0
h -6 297 0
h -6 298 0
h -6 299 0
h -6 301 0
h -6 303 0
h -6 305 0
h -6 310 0
h -6 314 0
h -6 316 0
h -6 317 0
h -6 319 0
h -6 328 0
h -6 329 0
h -6 330 0
h -6 332 0
h -6 333 0
h -6 336 0
h -6 340 0
h -6 343 0
h -6 346 0
h -6 347 0
h -6 348 0
h -6 349 0
h -6 350 0
h -6 351 0
h -6 354 0
h -6 355 0
h -6 359 0
h -6 360 0
h -6 361 0
h -6 362 0
h -6 364 0
h -6 365 0
h -6 366 0
h -6 367 0
h -6 369 0
h -6 370 0
h -6 376 0
h -6 378 0
h -6 379 0
h -6 381 0
h -6 382 0
h -6 383 0
h -6 384 0
h -6 387 0
h -6 389 0
h -6 392 0
h -6 395 0
h -6 396 0
h -6 397 0
h -6 398 0
h -6 401 0
h -6 406 0
h -6 409 0
h -6 410 0
h -7 11 0
h -7 13 0
h -7 18 0
h -7 20 0
h -7 22 0
h -7 24 0
h -7 25 0
h -7 26 0
h -7 27 0
h -7 28 0
h -7 33 0
h -7 35 0
h -7 36 0
h -7 37 0
h -7 38 0
h -7 40 0
h -7 41 0
h -7 42 0
h -7 43 0
h -7 44 0
h -7 45 0
h -7 46 0
h -7 47 0
h -7 48 0
h -7 50 0
h -7 53 0
h -7 55 0
h -7 56 0
h -7 57 0
h -7 60 0
h -7 61 0
h -7 62 0
h -7 63 0
h -7 64 0
h -7 67 0
h -7 69 0
h -7 70 0
h -7 73 0
h -7 74 0
h -7 76 0
h -7 78 0
h -7 80 0
h -7 81 0
h -7 86 0
h -7 87 0
h -7 88 0
h -7 89 0
h -7 92 0
h -7 93 0
h -7 94 0
h -7 95 0
h -7 98 0
h -7 102 0
h -7 103 0
h -7 104 0
h -7 106 0
h -7 109 0
h -7 110 0
h -7 113 0
h -7 114 0
h -7 115 0
h -7 116 0
h -7 118 0
h -7 119 0
h -7 120 0
h -7 121 0
h -7 122 0
h -7 123 0
h -7 124 0
h -7 128 0
h -7 131 0
h -7 132 0
h -7 133 0
h -7 134 0
h -7 135 0
h -7 140 0
h -7 142 0
h -7 146 0
h -7 147 0
h -7 149 0
h -7 151 0
h -7 152 0
h -7 153 0
h -7 154 0
h -7 156 0
h -7 161 0
h -7 162 0
h -7 163 0
h -7 168 0
h -7 169 0
h -7 172 0
h -7 173 0
h -7 175 0
h -7 182 0
h -7 183 0
h -7 184 0
h -7 185 0
h -7 186 0
h -7 188 0
h -7 190 0
h -7 191 0
h -7 192 0
h -7 194 0
h -7 200 0
h -7 201 0
h -7 202 0
h -7 203 0
h -7 205 0
h -7 206 0
h -7 208 0
h -7 209 0
h -7 210 0
h -7 211 0
h -7 213 0
h -7 215 0
h -7 217 0
h -7 223 0
h -7 224 0
h -7 225 0
h -7 227 0
h -7 230 0
h -7 231 0
h -7 234 0
h -7 235 0
h -7 238 0
h -7 239 0
h -7 240 0
h -7 241 0
h -7 242 0
h -7 243 0
h -7 245 0
h -7 246 0
h -7 249 0
h -7 250 0
h -7 251 0
h -7 252 0
h -7 253 0
h -7 255 0
h -7 256 0
h -7 257 0
h -7 261 0
h -7 262 0
h -7 264 0
h -7 265 0
h -7 267 0
h -7 268 0
h -7 269 0
h -7 276 0
h -7 278 0
h -7 280 0
h -7 284 0
h -7 287 0
h -7 292 0
h -7 293 0
h -7 294 0
h -7 295 0
h -7 296 0
h -7 297 0
h -7 299 0
h -7 301 0
h -7 302 0
h -7 305 0
h -7 306 0
h -7 310 0
h -7 312 0
h -7 313 0
h -7 315 0
h -7 317 0
h -7 320 0
h -7 323 0
h -7 325 0
h -7 329 0
h -7 334 0
h -7 337 0
h -7 338 0
h -7 339 0
h -7 342 0
h -7 343 0
h -7 344 0
h -7 345 0
h -7 346 0
h -7 347 0
h -7 350 0
h -7 351 0
h -7 357 0
h -7 361 0
h -7 362 0
h -7 369 0
h -7 375 0
h -7 376 0
h -7 377 0
h -7 380 0
h -7 381 0
h -7 384 0
h -7 388 0
h -7 390 0
h -7 400 0
h -7 401 0
h -7 403 0
h -7 407 0
h -7 409 0
h -8 11 0
h -8 12 0
h -8 13 0
h -8 15 0
h -8 17 0
h -8 18 0
h -8 19 0
h -8 20 0
h -8 21 0
h -8 22 0
h -8 23 0
h -8 24 0
h -8 25 0
h -8 26 0
h -8 27 0
h -8 28 0
h -8 30 0
h -8 31 0
h -8 32 0
h -8 34 0
h -8 39 0
h -8 45 0
h -8 48 0
h -8 49 0
h -8 51 0
h -8 53 0
h -8 55 0
h -8 57 0
h -8 58 0
h -8 60 0
h -8 61 0
h -8 62 0
h -8 63 0
h -8 64 0
h -8 65 0
h -8 67 0
h -8 68 0
h -8 69 0
h -8 70 0
h -8 73 0
h -8 75 0
h -8 77 0
h -8 79 0
h -8 81 0
h -8 83 0
h -8 84 0
h -8 85 0
h -8 86 0
h -8 88 0
h -8 91 0
h -8 96 0
h -8 97 0
h -8 100 0
h -8 105 0
h -8 106 0
h -8 107 0
h -8 108 0
h -8 109 0
h -8 123 0
h -8 125 0
h -8 126 0
h -8 127 0
h -8 128 0
h -8 131 0
h -8 133 0
h -8 137 0
h -8 138 0
h -8 139 0
h -8 146 0
h -8 147 0
h -8 148 0
h -8 155 0
h -8 161 0
h -8 162 0
h -8 163 0
h -8 166 0
h -8 167 0
h -8 171 0
h -8 174 0
h -8 176 0
h -8 178 0
h -8 179 0
h -8 181 0
h -8 182 0
h -8 185 0
h -8 189 0
h -8 190 0
h -8 191 0
h -8 193 0
h -8 198 0
h -8 199 0
h -8 200 0
h -8 202 0
h -8 203 0
h -8 204 0
h -8 205 0
h -8 211 0
h -8 214 0
h -8 215 0
h -8 217 0
h -8 219 0
h -8 221 0
h -8 224 0
h -8 225 0
h -8 227 0
h -8 228 0
h -8 229 0
h -8 230 0
h -8 232 0
h -8 235 0
h -8 236 0
h -8 237 0
h -8 239 0
h -8 240 0
h -8 241 0
h -8 242 0
h -8 245 0
h -8 247 0
h -8 252 0
h -8 254 0
h -8 257 0
h -8 259 0
h -8 260 0
h -8 261 0
h -8 263 0
h -8 264 0
h -8 268 0
h -8 269 0
h -8 270 0
h -8 277 0
h -8 279 0
h -8 280 0
h -8 281 0
h -8 282 0
h -8 283 0
h -8 285 0
h -8 286 0
h -8 288 0
h -8 292 0
h -8 296 0
h -8 297 0
h -8 299 0
h -8 303 0
h -8 307 0
h -8 310 0
h -8 311 0
h -8 313 0
h -8 315 0
h -8 318 0
h -8 320 0
h -8 321 0
h -8 322 0
h -8 323 0
h -8 324 0
h -8 325 0
h -8 326 0
h -8 327 0
h -8 330 0
h -8 331 0
h -8 332 0
h -8 337 0
h -8 341 0
h -8 342 0
h -8 343 0
h -8 345 0
h -8 346 0
h -8 350 0
h -8 351 0
h -8 352 0
h -8 354 0
h -8 355 0
h -8 356 0
h -8 357 0
h -8 358 0
h -8 362 0
h -8 363 0
h -8 364 0
h -8 365 0
h -8 366 0
h -8 370 0
h -8 371 0
h -8 372 0
h -8 373 0
h -8 374 0
h -8 375 0
h -8 376 0
h -8 377 0
h -8 380 0
h -8 385 0
h -8 386 0
h -8 388 0
h -8 392 0
h -8 393 0
h -8 394 0
h -8 397 0
h -8 399 0
h -8 400 0
h -8 404 0
h -8 405 0
h -8 406 0
h -8 408 0
h -9 11 0
h -9 16 0
h -9 17 0
h -9 18 0
h -9 20 0
h -9 23 0
h -9 25 0
h -9 27 0
h -9 28 0
h -9 29 0
h -9 31 0
h -9 34 0
h -9 38 0
h -9 39 0
h -9 43 0
h -9 44 0
h -9 46 0
h -9 49 0
h -9 50 0
h -9 51 0
h -9 53 0
h -9 54 0
h -9 55 0
h -9 56 0
h -9 57 0
h -9 59 0
h -9 69 0
h -9 71 0
h -9 83 0
h -9 86 0
h -9 88 0
h -9 90 0
h -9 91 0
h -9 92 0
h -9 93 0
h -9 98 0
h -9 100 0
h -9 101 0
h -9 102 0
h -9 104 0
h -9 105 0
h -9 106 0
h -9 108 0
h -9 111 0
h -9 112 0
h -9 115 0
h -9 116 0
h -9 117 0
h -9 118 0
h -9 121 0
h -9 123 0
h -9 124 0
h -9 126 0
h -9 127 0
h -9 128 0
h -9 129 0
h -9 131 0
h -9 132 0
h -9 134 0
h -9 135 0
h -9 138 0
h -9 139 0
h -9 140 0
h -9 142 0
h -9 143 0
h -9 144 0
h -9 147 0
h -9 148 0
h -9 150 0
h -9 152 0
h -9 154 0
h -9 155 0
h -9 156 0
h -9 158 0
h -9 159 0
h -9 160 0
h -9 161 0
h -9 163 0
h -9 164 0
h -9 165 0
h -9 169 0
h -9 173 0
h -9 176 0
h -9 179 0
h -9 182 0
h -9 183 0
h -9 184 0
h -9 185 0
h -9 187 0
h -9 188 0
h -9 191 0
h -9 193 0
h -9 194 0
h -9 196 0
h -9 197 0
h -9 199 0
h -9 200 0
h -9 202 0
h -9 203 0
h -9 204 0
h -9 208 0
h -9 209 0
h -9 212 0
h -9 214 0
h -9 215 0
h -9 216 0
h -9 218 0
h -9 219 0
h -9 220 0
h -9 221 0
h -9 222 0
h -9 223 0
h -9 230 0
h -9 232 0
h -9 234 0
h -9 235 0
h -9 237 0
h -9 238 0
h -9 243 0
h -9 246 0
h -9 250 0
h -9 251 0
h -9 252 0
h -9 253 0
h -9 255 0
h -9 258 0
h -9 260 0
h -9 261 0
h -9 262 0
h -9 265 0
h -9 270 0
h -9 271 0
h -9 272 0
h -9 277 0
h -9 279 0
h -9 280 0
h -9 281 0
h -9 285 0
h -9 288 0
h -9 290 0
h -9 291 0
h -9 292 0
h -9 294 0
h -9 296 0
h -9 301 0
h -9 302 0
h -9 304 0
h -9 306 0
h -9 307 0
h -9 308 0
h -9 309 0
h -9 313 0
h -9 316 0
h -9 318 0
h -9 319 0
h -9 320 0
h -9 321 0
h -9 322 0
h -9 323 0
h -9 326 0
h -9 327 0
h -9 329 0
h -9 331 0
h -9 332 0
h -9 333 0
h -9 334 0
h -9 335 0
h -9 339 0
h -9 341 0
h -9 342 0
h -9 344 0
h -9 347 0
h -9 349 0
h -9 350 0
h -9 352 0
h -9 362 0
h -9 364 0
h -9 368 0
h -9 370 0
h -9 371 0
h -9 374 0
h -9 375 0
h -9 376 0
h -9 384 0
h -9 385 0
h -9 386 0
h -9 388 0
h -9 389 0
h -9 391 0
h -9 395 0
h -9 396 0
h -9 399 0
h -9 402 0
h -9 403 0
h -9 404 0
h -9 409 0
h -9 410 0
h -10 12 0
h -10 15 0
h -10 21 0
h -10 22 0
h -10 24 0
h -10 29 0
h -10 31 0
h -10 33 0
h -10 35 0
h -10 37 0
h -10 38 0
h -10 42 0
h -10 43 0
h -10 47 0
h -10 52 0
h -10 54 0
h -10 56 0
h -10 58 0
h -10 59 0
h -10 61 0
h -10 63 0
h -10 66 0
h -10 67 0
h -10 69 0
h -10 71 0
h -10 72 0
h -10 76 0
h -10 78 0
h -10 81 0
h -10 82 0
h -10 90 0
h -10 98 0
h -10 99 0
h -10 102 0
h -10 103 0
h -10 104 0
h -10 105 0
h -10 107 0
h -10 108 0
h -10 111 0
h -10 115 0
h -10 116 0
h -10 117 0
h -10 119 0
h -10 120 0
h -10 122 0
h -10 125 0
h -10 126 0
h -10 129 0
h -10 130 0
h -10 131 0
h -10 133 0
h -10 135 0
h -10 136 0
h -10 140 0
h -10 141 0
h -10 142 0
h -10 144 0
h -10 145 0
h -10 146 0
h -10 150 0
h -10 151 0
h -10 152 0
h -10 158 0
h -10 160 0
h -10 162 0
h -10 167 0
h -10 168 0
h -10 170 0
h -10 171 0
h -10 172 0
h -10 179 0
h -10 180 0
h -10 182 0
h -10 186 0
h -10 192 0
h -10 193 0
h -10 194 0
h -10 195 0
h -10 197 0
h -10 199 0
h -10 202 0
h -10 206 0
h -10 210 0
h -10 212 0
h -10 213 0
h -10 219 0
h -10 220 0
h -10 222 0
h -10 224 0
h -10 225 0
h -10 226 0
h -10 227 0
h -10 228 0
h -10 229 0
h -10 230 0
h -10 231 0
h -10 233 0
h -10 234 0
h -10 236 0
h -10 238 0
h -10 243 0
h -10 244 0
h -10 245 0
h -10 246 0
h -10 247 0
h -10 248 0
h -10 254 0
h -10 256 0
h -10 257 0
h -10 258 0
h -10 259 0
h -10 261 0
h -10 263 0
h -10 264 0
h -10 265 0
h -10 266 0
h -10 267 0
h -10 268 0
h -10 269 0
h -10 270 0
h -10 275 0
h -10 276 0
h -10 278 0
h -10 281 0
h -10 284 0
h -10 285 0
h -10 287 0
h -10 291 0
h -10 296 0
h -10 298 0
h -10 300 0
h -10 303 0
h -10 304 0
h -10 305 0
h -10 306 0
h -10 307 0
h -10 308 0
h -10 310 0
h -10 312 0
h -10 313 0
h -10 316 0
h -10 317 0
h -10 318 0
h -10 319 0
h -10 320 0
h -10 321 0
h -10 322 0
h -10 328 0
h -10 330 0
h -10 333 0
h -10 335 0
h -10 336 0
h -10 340 0
h -10 342 0
h -10 343 0
h -10 344 0
h -10 353 0
h -10 354 0
h -10 355 0
h -10 356 0
h -10 358 0
h -10 360 0
h -10 363 0
h -10 366 0
h -10 372 0
h -10 373 0
h -10 375 0
h -10 376 0
h -10 378 0
h -10 379 0
h -10 380 0
h -10 381 0
h -10 383 0
h -10 385 0
h -10 387 0
h -10 389 0
h -10 390 0
h -10 391 0
h -10 393 0
h -10 396 0
h -10 403 0
h -10 405 0
h -10 407 0
h -10 408 0
h -10 409 0
h -10 410 0
h -11 1 5 7 8 9 0
h -12 1 2 3 8 10 0
h -13 4 5 6 7 8 0
h -14 1 2 3 4 5 0
h -15 2 3 4 8 10 0
h -16 1 2 3 6 9 0
h -17 1 4 5 8 9 0
h -18 1 6 7 8 9 0
h -19 1 3 4 5 8 0
h -20 2 5 7 8 9 0
h -21 1 2 6 8 10 0
h -22 4 5 7 8 10 0
h -23 3 4 5 8 9 0
h -24 4 6 7 8 10 0
h -25 1 6 7 8 9 0
h -26 2 3 4 7 8 0
h -27 2 4 7 8 9 0
h -28 5 6 7 8 9 0
h -29 2 5 6 9 10 0
h -30 3 4 5 6 8 0
h -31 1 6 8 9 10 0
h -32 1 4 5 6 8 0
h -33 2 3 6 7 10 0
h -34 1 2 4 8 9 0
h -35 1 4 6 7 10 0
h -36 1 2 5 6 7 0
h -37 2 3 5 7 10 0
h -38 1 2 7 9 10 0
h -39 1 2 6 8 9 0
h -40 2 4 5 6 7 0
h -41 2 3 4 6 7 0
h -42 4 5 6 7 10 0
h -43 3 4 7 9 10 0
h -44 2 3 6 7 9 0
h -45 1 5 6 7 8 0
h -46 2 3 6 7 9 0
h -47 1 2 4 7 10 0
h -48 1 3 4 7 8 0
h -49 1 3 6 8 9 0
h -50 1 4 6 7 9 0
h -51 1 3 4 8 9 0
h -52 1 2 4 5 10 0
h -53 1 4 7 8 9 0
h -54 1 2 4 9 10 0
h -55 4 6 7 8 9 0
h -56 3 6 7 9 10 0
h -57 2 5 7 8 9 0
h -58 1 3 5 8 10 0
h -59 1 3 4 9 10 0
h -60 1 3 6 7 8 0
h -61 4 5 7 8 10 0
h -62 1 4 5 7 8 0
h -63 3 4 7 8 10 0
h -64 3 4 6 7 8 0
h -65 1 3 5 6 8 0
h -66 1 2 3 5 10 0
h -67 3 5 7 8 10 0
h -68 1 3 5 6 8 0
h -69 6 7 8 9 10 0
h -70 2 3 6 7 8 0
h -71 1 4 5 9 10 0
h -72 2 3 4 5 10 0
h -73 2 4 6 7 8 0
h -74 1 3 4 6 7 0
h -75 1 2 3 5 8 0
h -76 1 3 4 7 10 0
h -77 2 3 4 5 8 0
h -78 2 5 6 7 10 0
h -79 1 2 3 4 8 0
h -80 1 3 4 5 7 0
h -81 1 4 7 8 10 0
h -82 1 2 5 6 10 0
h -83 3 5 6 8 9 0
h -84 1 3 5 6 8 0
h -85 1 2 4 5 8 0
h -86 5 6 7 8 9 0
h -87 1 2 3 6 7 0
h -88 1 6 7 8 9 0
h -89 1 3 4 5 7 0
h -90 1 2 6 9 10 0
h -91 3 4 6 8 9 0
h -92 3 4 5 7 9 0
h -93 1 2 3 7 9 0
h -94 2 3 4 5 7 0
h -95 1 2 3 6 7 0
h -96 1 2 3 5 8 0
h -97 2 4 5 6 8 0
h -98 1 2 7 9 10 0
h -99 2 4 5 6 10 0
h -100 2 4 6 8 9 0
h -101 1 2 4 6 9 0
h -102 2 5 7 9 10 0
h -103 3 5 6 7 10 0
h -104 3 4 7 9 10 0
h -105 1 6 8 9 10 0
h -106 3 6 7 8 9 0
h -107 2 3 5 8 10 0
h -108 2 3 8 9 10 0
h -109 1 2 5 7 8 0
h -110 1 2 3 4 7 0
h -111 1 2 4 9 10 0
h -112 1 2 3 6 9 0
h -113 1 2 3 5 7 0
h -114 1 2 3 5 7 0
h -115 1 6 7 9 10 0
h -116 3 4 7 9 10 0
h -117 1 2 6 9 10 0
h -118 2 3 5 7 9 0
h -119 2 3 5 7 10 0
h -120 4 5 6 7 10 0
h -121 3 4 6 7 9 0
h -122 2 5 6 7 10 0
h -123 1 5 7 8 9 0
h -124 1 4 6 7 9 0
h -125 2 5 6 8 10 0
h -126 3 6 8 9 10 0
h -127 1 2 4 8 9 0
h -128 1 5 7 8 9 0
h -129 1 3 6 9 10 0
h -130 1 2 4 6 10 0
h -131 5 7 8 9 10 0
h -132 3 4 5 7 9 0
h -133 2 3 7 8 10 0
h -134 3 4 6 7 9 0
h -135 1 4 7 9 10 0
h -136 1 3 5 6 10 0
h -137 1 4 5 6 8 0
h -138 1 2 4 8 9 0
h -139 2 3 6 8 9 0
h -140 5 6 7 9 10 0
h -141 1 2 4 6 10 0
h -142 1 6 7 9 10 0
h -143 1 3 4 5 9 0
h -144 1 2 6 9 10 0
h -145 1 2 3 6 10 0
h -146 5 6 7 8 10 0
h -147 2 5 7 8 9 0
h -148 1 4 6 8 9 0
h -149 1 2 3 4 7 0
h -150 1 2 3 9 10 0
h -151 1 3 4 7 10 0
h -152 2 4 7 9 10 0
h -153 2 4 5 6 7 0
h -154 1 2 3 7 9 0
h -155 2 3 4 8 9 0
h -156 1 2 3 7 9 0
h -157 1 3 4 5 6 0
h -158 3 4 6 9 10 0
h -159 1 4 5 6 9 0
h -160 1 4 5 9 10 0
h -161 1 2 7 8 9 0
h -162 4 5 7 8 10 0
h -163 2 5 7 8 9 0
h -164 1 4 5 6 9 0
h -165 2 3 4 5 9 0
h -166 2 4 5 6 8 0
h -167 1 2 6 8 10 0
h -168 2 3 6 7 10 0
h -169 2 4 5 7 9 0
h -170 1 2 4 6 10 0
h -171 1 3 6 8 10 0
h -172 2 3 6 7 10 0
h -173 1 2 3 7 9 0
h -174 2 3 4 6 8 0
h -175 1 3 4 6 7 0
h -176 1 2 4 8 9 0
h -177 1 2 3 4 6 0
h -178 2 3 4 5 8 0
h -179 3 5 8 9 10 0
h -180 1 2 3 5 10 0
h -181 2 3 5 6 8 0
h -182 3 7 8 9 10 0
h -183 2 3 5 7 9 0
h -184 1 4 5 7 9 0
h -185 3 4 7 8 9 0
h -186 1 2 3 7 10 0
h -187 1 2 3 5 9 0
h -188 3 5 6 7 9 0
h -189 2 3 4 6 8 0
h -190 3 4 5 7 8 0
h -191 2 6 7 8 9 0
h -192 1 5 6 7 10 0
h -193 1 6 8 9 10 0
h -194 2 5 7 9 10 0
h -195 2 4 5 6 10 0
h -196 2 3 5 6 9 0
h -197 1 2 3 9 10 0
h -198 2 3 4 5 8 0
h -199 3 6 8 9 10 0
h -200 3 4 7 8 9 0
h -201 1 3 5 6 7 0
h -202 5 7 8 9 10 0
h -203 1 4 7 8 9 0
h -204 1 2 6 8 9 0
h -205 1 3 5 7 8 0
h -206 1 2 4 7 10 0
h -207 1 2 3 4 6 0
h -208 1 2 5 7 9 0
h -209 4 5 6 7 9 0
h -210 3 4 6 7 10 0
h -211 3 4 5 7 8 0
h -212 1 2 3 9 10 0
h -213 1 3 6 7 10 0
h -214 4 5 6 8 9 0
h -215 3 4 7 8 9 0
h -216 1 2 3 5 9 0
h -217 1 2 6 7 8 0
h -218 1 2 3 5 9 0
h -219 3 5 8 9 10 0
h -220 1 4 6 9 10 0
h -221 1 2 3 8 9 0
h -222 1 2 5 9 10 0
h -223 2 5 6 7 9 0
h -224 1 6 7 8 10 0
h -225 3 5 7 8 10 0
h -226 1 2 5 6 10 0
h -227 2 3 7 8 10 0
h -228 3 4 6 8 10 0
h -229 1 2 3 8 10 0
h -230 5 7 8 9 10 0
h -231 2 4 5 7 10 0
h -232 1 5 6 8 9 0
h -233 1 2 3 5 10 0
h -234 1 2 7 9 10 0
h -235 4 5 7 8 9 0
h -236 1 4 5 8 10 0
h -237 2 3 4 8 9 0
h -238 5 6 7 9 10 0
h -239 1 2 3 7 8 0
h -240 1 2 5 7 8 0
h -241 1 2 3 7 8 0
h -242 2 5 6 7 8 0
h -243 5 6 7 9 10 0
h -244 2 3 4 6 10 0
h -245 5 6 7 8 10 0
h -246 1 5 7 9 10 0
h -247 2 3 6 8 10 0
h -248 2 4 5 6 10 0
h -249 3 4 5 6 7 0
h -250 1 4 6 7 9 0
h -251 2 4 5 7 9 0
h -252 3 5 7 8 9 0
h -253 3 5 6 7 9 0
h -254 1 2 6 8 10 0
h -255 2 3 6 7 9 0
h -256 2 3 5 7 10 0
h -257 2 5 7 8 10 0
h -258 1 3 6 9 10 0
h -259 1 3 4 8 10 0
h -260 2 3 5 8 9 0
h -261 5 7 8 9 10 0
h -262 1 3 5 7 9 0
h -263 3 4 5 8 10 0
h -264 2 6 7 8 10 0
h -265 1 4 7 9 10 0
h -266 2 3 4 5 10 0
h -267 1 3 5 7 10 0
h -268 2 6 7 8 10 0
h -269 1 3 7 8 10 0
h -270 1 4 8 9 10 0
h -271 1 3 4 5 9 0
h -272 1 3 5 6 9 0
h -273 1 3 4 5 6 0
h -274 1 2 3 4 6 0
h -275 2 3 5 6 10 0
h -276 1 4 5 7 10 0
h -277 2 4 6 8 9 0
h -278 1 3 6 7 10 0
h -279 2 3 5 8 9 0
h -280 2 4 7 8 9 0
h -281 3 5 8 9 10 0
h -282 2 3 4 5 8 0
h -283 2 3 5 6 8 0
h -284 2 3 4 7 10 0
h -285 1 2 8 9 10 0
h -286 1 2 3 5 8 0
h -287 1 4 5 7 10 0
h -288 2 4 6 8 9 0
h -289 1 2 3 4 6 0
h -290 2 4 5 6 9 0
h -291 3 4 5 9 10 0
h -292 4 6 7 8 9 0
h -293 3 4 5 6 7 0
h -294 1 4 6 7 9 0
h -295 2 3 5 6 7 0
h -296 3 7 8 9 10 0
h -297 3 4 6 7 8 0
h -298 2 4 5 6 10 0
h -299 1 5 6 7 8 0
h -300 1 2 3 5 10 0
h -301 2 4 6 7 9 0
h -302 1 3 4 7 9 0
h -303 2 3 6 8 10 0
h -304 1 3 5 9 10 0
h -305 1 4 6 7 10 0
h -306 1 5 7 9 10 0
h -307 3 5 8 9 10 0
h -308 1 4 5 9 10 0
h -309 1 3 4 5 9 0
h -310 4 6 7 8 10 0
h -311 1 2 3 5 8 0
h -312 1 2 5 7 10 0
h -313 1 7 8 9 10 0
h -314 1 2 3 4 6 0
h -315 1 2 3 7 8 0
h -316 2 4 6 9 10 0
h -317 1 3 6 7 10 0
h -318 1 4 8 9 10 0
h -319 4 5 6 9 10 0
h -320 1 7 8 9 10 0
h -321 3 5 8 9 10 0
h -322 1 2 8 9 10 0
h -323 2 3 7 8 9 0
h -324 2 3 4 5 8 0
h -325 1 2 3 7 8 0
h -326 1 3 5 8 9 0
h -327 2 3 5 8 9 0
h -328 2 4 5 6 10 0
h -329 2 5 6 7 9 0
h -330 2 3 6 8 10 0
h -331 3 4 5 8 9 0
h -332 4 5 6 8 9 0
h -333 3 5 6 9 10 0
h -334 2 4 5 7 9 0
h -335 3 4 5 9 10 0
h -336 2 4 5 6 10 0
h -337 1 3 5 7 8 0
h -338 1 2 3 5 7 0
h -339 2 3 5 7 9 0
h -340 2 4 5 6 10 0
h -341 2 3 4 8 9 0
h -342 4 7 8 9 10 0
h -343 2 6 7 8 10 0
h -344 1 5 7 9 10 0
h -345 3 4 5 7 8 0
h -346 3 4 6 7 8 0
h -347 1 2 6 7 9 0
h -348 1 2 4 5 6 0
h -349 1 4 5 6 9 0
h -350 4 6 7 8 9 0
h -351 1 2 6 7 8 0
h -352 2 4 5 8 9 0
h -353 1 3 4 5 10 0
h -354 1 5 6 8 10 0
h -355 4 5 6 8 10 0
h -356 1 3 4 8 10 0
h -357 1 3 5 7 8 0
h -358 2 4 5 8 10 0
h -359 1 2 3 5 6 0
h -360 3 4 5 6 10 0
h -361 1 2 5 6 7 0
h -362 2 6 7 8 9 0
h -363 1 3 4 8 10 0
h -364 2 3 6 8 9 0
h -365 2 4 5 6 8 0
h -366 1 5 6 8 10 0
h -367 1 2 3 4 6 0
h -368 1 2 4 5 9 0
h -369 1 2 5 6 7 0
h -370 4 5 6 8 9 0
h -371 2 3 4 8 9 0
h -372 1 2 5 8 10 0
h -373 1 2 5 8 10 0
h -374 1 2 4 8 9 0
h -375 2 7 8 9 10 0
h -376 6 7 8 9 10 0
h -377 1 4 5 7 8 0
h -378 1 2 3 6 10 0
h -379 1 3 4 6 10 0
h -380 2 4 7 8 10 0
h -381 3 5 6 7 10 0
h -382 1 2 3 5 6 0
h -383 1 2 5 6 10 0
h -384 2 5 6 7 9 0
h -385 2 5 8 9 10 0
h -386 1 3 4 8 9 0
h -387 3 4 5 6 10 0
h -388 3 5 7 8 9 0
h -389 3 5 6 9 10 0
h -390 2 3 5 7 10 0
h -391 2 3 5 9 10 0
h -392 1 3 5 6 8 0
h -393 2 3 4 8 10 0
h -394 2 3 4 5 8 0
h -395 1 3 5 6 9 0
h -396 3 4 6 9 10 0
h -397 1 3 5 6 8 0
h -398 1 2 3 5 6 0
h -399 1 2 4 8 9 0
h -400 1 2 3 7 8 0
h -401 1 2 3 6 7 0
h -402 1 3 4 5 9 0
h -403 1 3 7 9 10 0
h -404 1 2 4 8 9 0
h -405 2 4 5 8 10 0
h -406 1 3 5 6 8 0
h -407 3 4 5 7 10 0
h -408 1 2 3 8 10 0
h -409 5 6 7 9 10 0
h -410 1 5 6 9 10 0
h 11 0
h 12 0
h 13 0
h 14 0
h 15 0
h 16 0
h 17 0
h 18 0
h 19 0
h 20 0
h 21 0
h 22 0
h 23 0
h 24 0
h 25 0
h 26 0
h 27 0
h 28 0
h 29 0
h 30 0
h 31 0
h 32 0
h 33 0
h 34 0
h 35 0
h 36 0
h 37 0
h 38 0
h 39 0
h 40 0
h 41 0
h 42 0
h 43 0
h 44 0
h 45 0
h 46 0
h 47 0
h 48 0
h 49 0
h 50 0
1 -51 0
1 -52 0
1 -53 0
1 -54 0
1 -55 0
1 -56 0
1 -57 0
1 -58 0
1 -59 0
1 -60 0
1 -61 0
1 -62 0
1 -63 0
1 -64 0
1 -65 0
1 -66 0
1 -67 0
1 -68 0
1 -69 0
1 -70 0
1 -71 0
1 -72 0
1 -73 0
1 -74 0
1 -75 0
1 -76 0
1 -77 0
1 -78 0
1 -79 0
1 -80 0
1 -81 0
1 -82 0
1 -83 0
1 -84 0
1 -85 0
1 -86 0
1 -87 0
1 -88 0
1 -89 0
1 -90 0
1 -91 0
1 -92 0
1 -93 0
1 -94 0
1 -95 0
1 -96 0
1 -97 0
1 -98 0
1 -99 0
1 -100 0
1 -101 0
1 -102 0
1 -103 0
1 -104 0
1 -105 0
1 -106 0
1 -107 0
1 -108 0
1 -109 0
1 -110 0
1 -111 0
1 -112 0
1 -113 0
1 -114 0
1 -115 0
1 -116 0
1 -117 0
1 -118 0
1 -119 0
1 -120 0
1 -121 0
1 -122 0
1 -123 0
1 -124 0
1 -125 0
1 -126 0
1 -127 0
1 -128 0
1 -129 0
1 -130 0
1 -131 0
1 -132 0
1 -133 0
1 -134 0
1 -135 0
1 -136 0
1 -137 0
1 -138 0
1 -139 0
1 -140 0
1 -141 0
1 -142 0
1 -143 0
1 -144 0
1 -145 0
1 -146 0
1 -147 0
1 -148 0
1 -149 0
1 -150 0
1 -151 0
1 -152 0
1 -153 0
1 -154 0
1 -155 0
1 -156 0
1 -157 0
1 -158 0
1 -159 0
1 -160 0
1 -161 0
1 -162 0
1 -163 0
1 -164 0
1 -165 0
1 -166 0
1 -167 0
1 -168 0
1 -169 0
1 -170 0
1 -171 0
1 -172 0
1 -173 0
1 -174 0
1 -175 0
1 -176 0
1 -177 0
1 -178 0
1 -179 0
1 -180 0
1 -181 0
1 -182 0
1 -183 0
1 -184 0
1 -185 0
1 -186 0
1 -187 0
1 -188 0
1 -189 0
1 -190 0
1 -191 0
1 -192 0
1 -193 0
1 -194 0
1 -195 0
1 -196 0
1 -197 0
1 -198 0
1 -199 0
1 -200 0
1 -201 0
1 -202 0
1 -203 0
1 -204 0
1 -205 0
1 -206 0
1 -207 0
1 -208 0
1 -209 0
1 -210 0
1 -211 0
1 -212 0
1 -213 0
1 -214 0
1 -215 0
1 -216 0
1 -217 0
1 -218 0
1 -219 0
1 -220 0
1 -221 0
1 -222 0
1 -223 0
1 -224 0
1 -225 0
1 -226 0
1 -227 0
1 -228 0
1 -229 0
1 -230 0
1 -231 0
1 -232 0
1 -233 0
1 -234 0
1 -235 0
1 -236 0
1 -237 0
1 -238 0
1 -239 0
1 -240 0
1 -241 0
1 -242 0
1 -243 0
1 -244 0
1 -245 0
1 -246 0
1 -247 0
1 -248 0
1 -249 0
1 -250 0
1 -251 0
1 -252 0
1 -253 0
1 -254 0
1 -255 0
1 -256 0
1 -257 0
1 -258 0
1 -259 0
1 -260 0
1 -261 0
1 -262 0
1 -263 0
1 -264 0
1 -265 0
1 -266 0
1 -267 0
1 -268 0
1 -269 0
1 -270 0
1 -271 0
1 -272 0
1 -273 0
1 -274 0
1 -275 0
1 -276 0
1 -277 0
1 -278 0
1 -279 0
1 -280 0
1 -281 0
1 -282 0
1 -283 0
1 -284 0
1 -285 0
1 -286 0
1 -287 0
1 -288 0
1 -289 0
1 -290 0
1 -291 0
1 -292 0
1 -293 0
1 -294 0
1 -295 0
1 -296 0
1 -297 0
1 -298 0
1 -299 0
1 -300 0
1 -301 0
1 -302 0
1 -303 0
1 -304 0
1 -305 0
1 -306 0
1 -307 0
1 -308 0
1 -309 0
1 -310 0
1 -311 0
1 -312 0
1 -313 0
1 -314 0
1 -315 0
1 -316 0
1 -317 0
1 -318 0
1 -319 0
1 -320 0
1 -321 0
1 -322 0
1 -323 0
1 -324 0
1 -325 0
1 -326 0
1 -327 0
1 -328 0
1 -329 0
1 -330 0
1 -331 0
1 -332 0
1 -333 0
1 -334 0
1 -335 0
1 -336 0
1 -337 0
1 -338 0
1 -339 0
1 -340 0
1 -341 0
1 -342 0
1 -343 0
1 -344 0
1 -345 0
1 -346 0
1 -347 0
1 -348 0
1 -349 0
1 -350 0
1 -351 0
1 -352 0
1 -353 0
1 -354 0
1 -355 0
1 -356 0
1 -357 0
1 -358 0
1 -359 0
1 -360 0
1 -361 0
1 -362 0
1 -363 0
1 -364 0
1 -365 0
1 -366 0
1 -367 0
1 -368 0
1 -369 0
1 -370 0
1 -371 0
1 -372 0
1 -373 0
1 -374 0
1 -375 0
1 -376 0
1 -377 0
1 -378 0
1 -379 0
1 -380 0
1 -381 0
1 -382 0
1 -383 0
1 -384 0
1 -385 0
1 -386 0
1 -387 0
1 -388 0
1 -389 0
1 -390 0
1 -391 0
1 -392 0
1 -393 0
1 -394 0
1 -395 0
1 -396 0
1 -397 0
1 -398 0
1 -399 0
1 -400 0
1 -401 0
1 -402 0
1 -403 0
1 -404 0
1 -405 0
1 -406 0
1 -407 0
1 -408 0
1 -409 0
1 -410 0
